33D32945 STP File, STP Format Version 1.0

SECTION Comment
Name "lin02-50s"
Creator "Bernd Zey"
Problem "Stochastic Steiner Tree Problem"
# Stochastic Steiner tree problem instance, base file: lin02.stp
# weight-scaling off
# parameters:
# distribution=equal
# selectRootRandomly=0
# probabilityTerminal=33
# probabilityNonTerminal=5
# 2nd stage edge-costs in [1.1000c_e, 1.3000c_e]
END

SECTION Graph
Nodes 55
Edges 82
Scenarios 50
Root 11
E 1 53 10
E 1 32 74
E 1 39 24
E 2 54 110
E 2 24 160
E 3 48 66
E 3 53 24
E 3 10 162
E 4 47 12
E 4 23 64
E 4 37 32
E 5 14 88
E 5 30 144
E 5 10 92
E 5 26 160
E 6 10 74
E 6 29 6
E 6 54 160
E 7 41 33
E 7 47 42
E 7 29 62
E 8 44 88
E 8 19 26
E 8 15 2
E 9 34 25
E 9 55 2
E 9 13 42
E 10 35 160
E 11 36 49
E 11 32 23
E 12 14 160
E 12 26 88
E 13 46 2
E 13 28 18
E 14 33 144
E 15 17 88
E 15 49 26
E 15 50 146
E 16 29 42
E 16 47 62
E 16 24 62
E 17 44 2
E 17 27 146
E 18 33 52
E 18 30 36
E 19 42 76
E 19 49 2
E 20 45 102
E 20 40 190
E 21 50 26
E 21 49 146
E 21 53 66
E 21 48 24
E 22 28 2
E 22 46 18
E 22 23 52
E 23 31 18
E 24 51 62
E 25 32 72
E 25 52 72
E 25 55 74
E 26 35 92
E 27 50 88
E 27 43 24
E 28 41 31
E 30 38 18
E 31 46 52
E 31 40 50
E 33 43 18
E 34 39 21
E 35 54 74
E 36 49 76
E 36 42 2
E 36 52 72
E 37 51 18
E 38 43 88
E 38 50 24
E 38 48 26
E 40 51 82
E 42 45 72
E 45 52 2
E 46 55 42
END

SECTION StochasticProbabilities
SP 0.014200 0.012200 0.024400 0.010200 0.028400 0.024400 0.018300 0.012200 0.020300 0.022400 0.020300 0.028400 0.016300 0.012200 0.020300 0.012200 0.032500 0.020300 0.018300 0.028400 0.014200 0.016300 0.030500 0.022400 0.020300 0.036600 0.024400 0.016300 0.026400 0.022300 0.014100 0.022300 0.026300 0.022300 0.014100 0.014100 0.010100 0.022300 0.0060000 0.010100 0.022300 0.016200 0.012100 0.034400 0.024300 0.018200 0.028300 0.026300 0.014100 0.016200
END

SECTION StochasticWeights
SE 11 13 12 12 12 11 13 12 11 11 13 12 11 13 13 12 13 13 13 13 12 11 12 12 11 11 11 13 12 11 11 13 12 13 13 11 11 13 11 11 11 12 12 11 11 11 11 12 12 11 
SE 90 82 83 89 85 88 93 86 88 93 94 84 92 95 93 86 84 88 92 82 92 82 90 95 82 82 91 87 91 91 86 85 94 84 92 95 96 82 82 87 89 94 82 82 90 90 87 83 96 88 
SE 27 29 28 27 30 28 27 28 30 30 28 27 30 27 29 28 27 30 29 31 28 27 27 29 31 31 28 27 28 29 30 31 29 27 31 27 31 30 27 29 30 31 27 27 31 31 27 27 28 27 
SE 130 128 141 134 135 131 138 138 130 137 138 133 123 131 124 140 132 127 133 142 132 126 127 122 140 141 123 132 138 138 137 129 125 134 128 142 140 124 130 127 122 125 123 138 137 140 134 128 131 133 
SE 186 188 182 179 195 201 208 176 190 202 193 205 199 180 199 195 187 190 177 176 196 190 191 191 208 183 200 203 189 200 177 190 200 197 181 193 197 196 202 183 191 192 185 202 208 205 206 177 186 200 
SE 80 75 73 83 82 76 73 82 80 83 76 83 82 77 81 73 82 74 73 79 73 79 77 78 73 73 73 73 73 81 85 73 76 76 79 76 79 77 73 77 83 81 82 76 83 76 79 73 81 82 
SE 27 28 28 30 27 29 27 27 28 28 29 30 29 27 30 27 27 29 31 28 29 27 28 31 30 28 30 31 27 27 31 27 29 28 29 30 29 29 27 30 27 30 28 31 27 31 29 31 28 27 
SE 205 185 195 194 201 203 179 203 190 207 208 200 185 204 199 184 209 179 184 190 200 200 206 201 181 191 202 187 179 198 190 179 189 202 186 198 207 179 197 198 204 204 208 208 181 206 206 185 204 200 
SE 14 15 14 14 14 15 15 15 14 14 14 15 14 14 14 15 14 14 15 14 15 14 15 14 14 14 14 14 15 14 14 14 15 15 14 14 15 14 14 14 14 15 14 15 14 14 14 14 15 15 
SE 83 74 78 77 81 71 79 80 81 73 73 71 80 72 72 79 75 74 83 80 75 75 75 76 78 81 74 79 80 77 82 77 81 72 74 77 74 80 78 78 71 75 74 81 74 71 81 82 75 82 
SE 40 36 39 38 36 41 41 36 36 36 37 37 36 41 36 40 41 36 41 36 36 38 36 36 38 37 36 36 39 37 37 36 38 40 37 41 37 37 36 37 40 40 37 36 38 39 36 36 36 38 
SE 100 114 98 111 110 97 107 100 110 111 103 98 98 104 104 97 102 98 100 106 108 111 108 111 112 111 97 97 106 112 111 104 108 111 98 103 105 98 106 102 104 103 100 102 108 103 108 107 102 97 
SE 184 170 173 169 187 172 162 161 175 165 177 164 180 166 167 171 169 171 187 174 169 166 168 178 172 159 182 165 165 165 181 163 168 165 174 173 181 165 180 166 185 178 176 175 168 181 159 182 171 180 
SE 102 105 116 109 118 116 105 115 115 103 109 106 113 105 104 110 109 118 103 116 106 106 104 109 110 102 118 110 107 105 119 109 107 107 112 117 112 109 112 105 107 102 106 103 102 102 109 103 115 112 
SE 183 200 202 187 201 200 192 205 196 194 176 194 200 179 196 196 206 179 203 186 196 189 177 178 191 180 193 182 187 178 188 198 206 204 178 198 190 188 185 187 200 201 179 186 199 187 197 204 199 202 
SE 90 85 93 92 90 88 93 88 95 93 96 90 82 84 91 92 90 86 94 86 90 84 93 82 84 94 90 96 94 94 82 84 90 87 84 82 87 96 95 84 96 94 83 93 92 94 82 89 90 82 
SE 7 7 7 7 7 7 7 7 7 7 7 7 7 7 7 7 7 7 7 7 7 7 7 7 7 7 7 7 7 7 7 7 7 7 7 7 7 7 7 7 7 7 7 7 7 7 7 7 7 7 
SE 207 195 180 194 206 206 198 182 181 176 189 193 177 176 183 183 186 183 202 176 187 176 180 208 186 203 204 189 190 188 200 184 181 190 185 193 199 203 183 206 184 183 178 178 187 181 198 194 197 197 
SE 42 37 37 37 42 42 38 37 40 41 42 39 38 40 38 41 37 42 41 42 37 37 39 39 41 39 41 40 39 37 40 42 40 40 37 42 37 38 42 37 37 37 40 41 38 42 39 41 40 40 
SE 52 49 47 54 54 49 53 47 47 47 52 49 48 53 52 50 54 53 47 52 52 52 47 52 54 49 51 54 49 49 50 47 54 49 51 50 49 53 47 52 50 50 54 51 48 53 52 47 48 47 
SE 77 79 79 71 74 78 76 73 77 78 79 75 70 74 75 73 73 78 78 74 70 80 78 71 72 72 79 77 78 72 77 71 75 77 74 80 69 69 78 76 75 70 72 69 72 80 72 75 72 71 
SE 109 109 101 108 97 108 102 106 102 106 107 102 111 111 109 108 114 100 111 109 103 110 107 103 114 101 110 105 103 104 97 109 106 113 97 110 110 97 105 104 99 111 114 105 104 114 107 113 109 102 
SE 33 29 31 30 29 31 29 30 29 33 33 33 32 31 29 29 29 30 29 29 30 30 32 29 31 29 29 30 29 29 30 29 31 31 29 30 29 31 31 32 32 32 30 30 31 29 31 30 31 29 
SE 3 3 3 3 3 3 3 3 3 3 3 3 3 3 3 3 3 3 3 3 3 3 3 3 3 3 3 3 3 3 3 3 3 3 3 3 3 3 3 3 3 3 3 3 3 3 3 3 3 3 
SE 29 29 31 29 28 28 28 29 32 32 29 28 30 29 30 28 29 28 31 30 30 31 31 32 30 28 31 28 30 31 30 31 28 30 32 30 29 30 28 29 32 28 28 30 30 28 29 30 29 29 
SE 3 3 3 3 3 3 3 3 3 3 3 3 3 3 3 3 3 3 3 3 3 3 3 3 3 3 3 3 3 3 3 3 3 3 3 3 3 3 3 3 3 3 3 3 3 3 3 3 3 3 
SE 50 49 53 48 47 51 51 53 51 50 53 48 54 53 54 53 54 47 53 50 48 53 47 51 51 54 51 52 47 47 47 49 48 47 50 47 54 53 49 53 50 52 50 48 53 48 54 52 51 51 
SE 191 187 204 206 199 178 208 196 187 184 192 180 206 206 206 197 190 183 195 185 196 204 195 189 206 179 176 202 188 203 185 187 176 208 180 206 196 184 208 182 192 181 184 183 177 198 208 197 208 190 
SE 54 57 58 60 57 57 63 57 57 57 62 56 63 54 54 61 54 61 54 54 60 62 54 59 54 59 55 61 63 60 57 58 63 58 61 54 54 57 62 60 57 56 60 55 62 62 62 60 62 58 
SE 26 26 26 29 26 26 29 27 29 29 27 29 26 28 28 29 26 26 27 28 29 28 27 28 28 28 28 29 28 28 29 28 29 27 26 26 26 26 29 28 27 28 29 28 27 26 28 29 26 28 
SE 183 182 194 200 177 208 199 185 203 207 202 208 193 189 202 191 177 194 181 176 206 192 200 200 196 180 193 207 182 183 184 191 186 202 196 199 191 178 205 185 187 189 186 177 181 184 191 178 187 191 
SE 102 97 114 103 110 114 98 99 100 105 100 99 113 112 111 110 101 99 102 112 108 112 100 112 101 104 113 113 100 114 104 105 106 112 112 97 103 112 106 97 106 107 114 100 113 99 109 111 114 106 
SE 3 3 3 3 3 3 3 3 3 3 3 3 3 3 3 3 3 3 3 3 3 3 3 3 3 3 3 3 3 3 3 3 3 3 3 3 3 3 3 3 3 3 3 3 3 3 3 3 3 3 
SE 23 23 20 21 22 23 20 22 21 20 20 22 21 20 20 22 23 21 21 23 21 22 23 21 21 22 20 20 22 20 20 23 20 20 22 20 20 21 22 21 20 20 22 20 21 23 20 21 23 22 
SE 168 159 161 185 172 164 171 161 160 161 178 163 164 184 162 172 169 164 168 185 183 181 172 167 169 163 182 159 184 178 185 163 180 186 160 171 163 163 160 172 185 166 178 165 177 187 176 164 161 166 
SE 107 99 112 104 98 106 111 107 106 110 105 111 108 99 101 110 98 113 109 104 112 114 107 112 111 107 100 111 105 97 100 114 109 109 104 105 114 107 102 103 97 102 100 114 110 107 109 107 97 104 
SE 33 29 29 30 29 29 30 29 30 29 31 29 29 33 30 31 29 29 29 32 30 32 29 31 29 29 32 31 30 29 31 29 31 30 31 29 29 29 31 32 31 32 29 29 31 33 32 33 29 31 
SE 175 185 165 178 166 173 180 162 182 165 183 185 167 187 166 181 172 161 163 163 181 161 188 184 175 162 188 165 174 172 168 185 174 176 161 187 161 175 173 188 187 188 176 161 179 188 162 181 176 180 
SE 53 47 53 48 49 49 52 50 48 51 54 49 50 48 51 48 52 47 47 49 53 54 52 52 52 47 54 50 50 49 47 54 51 47 54 47 52 48 50 49 53 47 52 47 52 47 51 50 48 47 
SE 70 72 73 73 79 69 69 74 79 72 75 73 80 75 73 73 70 71 69 80 70 69 79 72 69 78 74 74 71 74 70 71 75 71 74 77 76 73 75 70 71 69 70 73 69 72 78 74 78 79 
SE 79 79 70 77 79 74 70 71 76 75 69 71 70 76 78 74 79 69 79 70 74 79 77 71 70 79 76 79 78 78 69 71 77 69 69 75 76 69 74 78 74 80 73 78 80 75 69 78 75 69 
SE 3 3 3 3 3 3 3 3 3 3 3 3 3 3 3 3 3 3 3 3 3 3 3 3 3 3 3 3 3 3 3 3 3 3 3 3 3 3 3 3 3 3 3 3 3 3 3 3 3 3 
SE 161 189 170 189 171 181 185 168 174 166 172 183 162 186 187 164 162 169 182 163 175 167 188 165 178 179 183 168 161 170 176 185 189 189 188 189 163 175 167 175 189 163 173 163 161 164 171 163 169 180 
SE 59 59 63 61 66 66 66 59 60 59 66 67 65 67 58 59 60 66 60 64 62 58 63 58 63 60 58 65 63 65 58 59 58 64 58 63 63 67 59 59 58 63 65 58 61 67 59 58 63 65 
SE 40 42 41 41 40 43 43 46 42 41 40 42 45 46 42 45 43 41 44 42 40 42 45 44 41 44 43 46 40 46 41 40 40 40 45 44 41 41 40 41 45 40 40 41 41 46 46 45 40 40 
SE 91 96 92 98 87 89 88 88 84 92 95 88 84 97 86 88 95 85 86 84 96 95 88 95 88 87 96 97 98 95 98 88 89 88 92 93 95 87 84 89 86 84 87 86 97 88 87 92 84 90 
SE 3 3 3 3 3 3 3 3 3 3 3 3 3 3 3 3 3 3 3 3 3 3 3 3 3 3 3 3 3 3 3 3 3 3 3 3 3 3 3 3 3 3 3 3 3 3 3 3 3 3 
SE 115 127 114 131 117 113 116 127 129 115 119 122 130 126 131 125 113 121 126 131 117 119 130 114 114 113 121 115 121 126 114 128 113 124 120 115 113 124 115 122 113 124 129 123 123 115 114 113 113 115 
SE 244 244 242 222 243 237 238 230 241 225 223 229 246 231 244 224 232 244 240 210 215 226 211 241 226 244 224 232 212 240 229 245 224 227 228 228 239 222 240 234 224 225 244 246 228 216 229 234 242 247 
SE 31 33 30 29 29 31 32 29 29 32 29 29 29 33 29 31 32 32 33 32 29 33 30 29 29 29 32 31 32 30 32 29 29 32 30 31 29 31 29 33 33 32 32 31 29 30 29 29 31 32 
SE 168 164 181 179 172 164 161 174 177 179 176 167 180 166 185 181 172 177 178 184 168 179 169 169 164 188 181 163 184 179 180 180 178 188 168 161 167 179 163 176 161 180 167 188 170 167 189 178 183 181 
SE 77 84 73 77 84 75 77 82 78 82 83 80 76 84 78 84 81 80 80 78 77 84 73 83 82 83 83 80 78 82 83 83 75 76 80 80 84 75 75 73 80 74 78 75 76 73 82 73 73 77 
SE 28 27 27 28 29 31 29 29 27 30 31 30 27 28 27 27 28 28 27 28 30 27 30 29 27 31 29 31 29 28 30 31 30 30 28 27 27 30 29 29 28 31 31 27 31 29 29 27 27 29 
SE 3 3 3 3 3 3 3 3 3 3 3 3 3 3 3 3 3 3 3 3 3 3 3 3 3 3 3 3 3 3 3 3 3 3 3 3 3 3 3 3 3 3 3 3 3 3 3 3 3 3 
SE 21 22 23 21 20 20 21 20 20 20 23 22 20 23 23 22 23 23 21 22 22 21 21 22 20 21 20 23 23 22 20 20 22 22 23 23 21 22 23 21 20 21 21 23 23 20 22 21 23 20 
SE 63 61 63 65 58 59 63 58 62 64 58 61 64 59 60 58 65 65 62 63 67 65 58 59 67 66 62 66 62 65 67 67 63 62 58 61 63 66 61 63 63 61 65 65 58 65 66 63 59 62 
SE 22 21 22 21 21 20 23 21 20 21 20 20 23 22 22 20 23 23 20 20 20 20 23 20 22 23 20 20 22 20 20 20 23 20 20 22 23 20 20 23 22 23 20 20 21 21 22 22 22 23 
SE 76 79 72 79 69 70 69 72 77 72 76 77 78 72 74 80 74 78 72 74 75 76 79 69 78 70 74 74 76 75 69 72 77 79 79 70 69 71 74 69 69 77 69 75 72 71 73 70 72 70 
SE 88 80 83 86 90 92 85 85 84 85 86 92 85 91 87 82 80 89 93 93 87 86 89 86 91 86 81 83 87 92 84 89 92 84 84 80 80 81 82 86 82 84 91 89 89 80 88 83 93 80 
SE 89 87 91 88 89 84 89 91 80 90 80 90 89 87 86 81 84 88 86 80 85 84 83 83 82 92 82 83 88 83 86 85 81 80 92 86 81 80 82 89 84 85 88 88 89 81 93 83 88 84 
SE 87 93 92 86 92 82 86 96 86 87 89 92 84 85 93 89 85 93 95 93 94 94 96 87 85 91 87 85 82 94 82 83 91 90 86 88 96 88 85 82 86 87 82 92 94 90 82 89 91 94 
SE 115 102 104 109 118 116 115 105 109 117 108 116 114 102 104 108 108 110 104 103 104 108 119 111 116 107 110 117 110 117 111 107 113 114 102 113 117 103 110 110 103 102 111 116 118 108 117 109 107 105 
SE 111 109 97 99 113 97 107 105 112 114 111 112 113 97 113 97 97 108 102 103 111 113 98 106 113 103 97 97 112 104 105 109 106 103 102 106 107 111 105 112 111 111 107 108 112 100 103 102 106 113 
SE 30 30 29 31 29 27 29 30 29 27 30 28 31 27 27 28 31 31 27 31 29 28 30 27 28 30 27 30 27 27 30 27 31 27 29 27 27 28 28 29 31 30 28 28 27 29 31 27 27 30 
SE 35 40 38 39 37 36 39 38 40 35 36 36 35 35 40 36 38 40 39 40 37 37 36 35 35 35 35 40 39 35 39 40 40 38 35 39 39 37 35 38 39 36 35 35 40 35 37 36 39 38 
SE 20 20 20 21 20 20 21 20 20 23 22 22 20 22 20 21 23 23 20 20 22 21 23 20 20 21 21 22 20 21 22 23 20 20 21 22 20 20 20 20 20 20 20 20 20 21 20 21 22 22 
SE 66 58 60 64 64 64 59 62 66 64 66 58 66 59 63 64 61 62 67 66 59 58 66 63 66 58 58 67 58 60 61 62 64 60 63 61 64 64 60 61 60 58 61 63 64 67 60 65 59 67 
SE 63 60 59 63 56 57 58 56 56 56 59 64 64 64 62 61 57 59 63 63 62 57 58 62 65 56 56 59 57 56 58 62 60 61 62 56 59 63 57 56 65 58 61 56 64 61 64 57 61 60 
SE 20 20 22 21 21 20 20 21 23 20 22 22 22 21 21 20 22 20 20 23 23 22 21 21 23 20 21 20 21 23 22 20 21 22 23 21 20 21 23 23 23 23 20 22 22 20 21 20 23 22 
SE 26 26 26 25 26 24 24 24 24 26 24 26 25 27 27 26 27 27 27 26 25 26 25 25 26 24 24 27 26 25 27 26 25 26 25 25 24 24 24 26 26 26 27 25 26 24 24 25 25 25 
SE 84 87 84 93 89 86 91 90 88 82 86 91 96 95 95 85 88 92 95 82 83 83 92 83 93 91 89 82 96 82 94 92 94 95 85 85 88 88 87 89 93 82 83 86 91 92 86 84 86 84 
SE 85 87 95 84 90 92 90 84 93 91 94 98 93 91 96 97 96 87 85 94 88 89 84 97 93 89 84 89 94 97 96 93 97 97 97 95 95 98 97 94 89 98 89 93 90 90 85 88 91 86 
SE 3 3 3 3 3 3 3 3 3 3 3 3 3 3 3 3 3 3 3 3 3 3 3 3 3 3 3 3 3 3 3 3 3 3 3 3 3 3 3 3 3 3 3 3 3 3 3 3 3 3 
SE 90 80 84 83 80 88 85 92 89 93 81 84 86 93 90 80 82 80 87 87 84 86 87 80 88 80 93 91 90 87 80 82 93 80 80 87 84 88 88 91 90 82 80 80 93 91 90 92 85 81 
SE 22 23 23 21 20 23 21 20 20 22 20 22 20 20 20 20 23 20 22 22 23 22 20 22 20 20 22 22 20 23 22 23 21 23 21 22 20 20 20 23 22 23 22 20 23 22 23 23 20 23 
SE 99 98 114 112 105 104 97 99 110 109 97 99 97 97 97 112 103 105 112 110 112 110 111 110 113 106 104 108 101 102 99 105 98 97 103 110 98 98 102 101 114 107 103 107 102 106 110 107 97 102 
SE 30 28 27 31 30 30 27 27 27 27 29 28 28 31 30 28 27 28 30 27 29 28 27 30 27 31 27 31 30 29 27 30 27 30 31 31 29 31 31 30 28 28 31 29 30 31 27 28 29 27 
SE 32 29 29 29 33 30 30 32 31 30 32 32 33 32 31 32 29 32 32 32 30 31 31 33 31 29 32 29 33 31 33 31 30 29 29 32 32 31 33 33 31 30 33 29 31 30 30 29 31 33 
SE 106 105 106 99 94 94 93 91 102 95 94 101 99 100 101 103 103 98 105 105 104 100 99 95 102 98 98 106 99 93 106 97 104 99 99 96 91 103 94 95 101 106 91 104 93 104 98 97 92 91 
SE 86 82 87 85 88 81 91 80 91 88 80 80 91 82 89 88 87 84 92 93 88 81 80 82 90 90 90 92 81 91 80 83 91 81 82 86 92 88 83 82 91 88 91 93 80 92 83 82 89 89 
SE 3 3 3 3 3 3 3 3 3 3 3 3 3 3 3 3 3 3 3 3 3 3 3 3 3 3 3 3 3 3 3 3 3 3 3 3 3 3 3 3 3 3 3 3 3 3 3 3 3 3 
SE 47 53 50 48 54 49 48 47 53 49 53 47 47 53 48 50 53 49 52 52 49 54 47 52 52 48 54 51 50 47 52 51 47 49 51 53 49 47 47 53 48 49 51 53 47 50 51 54 54 54 
END

SECTION StochasticTerminals
ST 1 0 0 0 0 0 0 0 0 0 0 0 0 0 0 0 1 0 0 1 0 1 0 0 0 0 0 0 0 0 0 0 0 0 0 0 0 0 1 1 0 0 0 0 0 0 0 0 0 0 0 
ST 2 0 0 0 0 0 0 0 0 0 0 0 0 0 0 0 0 0 0 0 1 0 0 0 0 0 0 0 0 0 0 0 1 1 0 0 0 0 0 1 0 0 0 0 1 0 0 0 0 0 0 
ST 3 0 0 0 0 0 0 1 0 0 0 0 0 0 0 0 0 0 0 0 0 0 0 0 0 0 0 0 0 0 0 0 0 0 0 0 0 1 0 0 0 0 1 0 0 0 0 0 0 0 0 
ST 4 0 0 0 0 0 0 1 0 0 0 0 0 0 0 0 0 0 0 0 0 0 0 0 0 0 0 1 0 0 0 0 0 0 0 0 0 0 0 0 0 0 0 0 0 0 0 0 0 0 0 
ST 5 0 0 0 0 0 0 0 0 0 0 0 0 0 0 0 0 0 0 0 0 0 0 0 0 0 0 0 0 0 0 0 0 0 0 0 0 0 0 0 0 0 0 0 0 0 0 0 0 0 0 
ST 6 1 0 0 0 0 0 0 1 0 0 0 0 0 0 0 0 0 0 0 0 0 0 0 0 0 0 0 0 1 0 0 0 0 0 0 0 0 0 0 0 0 0 0 0 0 0 0 0 0 0 
ST 7 0 0 0 0 0 0 0 0 0 0 0 0 0 0 0 0 0 0 0 0 0 0 0 0 0 0 0 0 0 0 0 0 0 0 0 0 0 0 0 0 0 0 0 0 0 0 0 0 1 0 
ST 8 0 0 0 0 0 0 0 0 0 0 0 0 0 0 0 0 0 0 0 0 0 0 0 0 0 0 0 0 0 0 0 0 0 0 0 0 0 0 0 0 0 0 0 0 0 0 0 0 0 0 
ST 9 0 0 0 0 0 0 0 0 0 0 0 0 0 0 0 0 0 0 0 0 0 1 0 0 0 1 0 0 0 0 1 0 0 0 0 0 0 0 0 0 0 0 0 0 0 0 0 0 0 0 
ST 10 0 0 0 0 1 0 0 0 0 0 0 0 0 0 0 0 0 0 0 0 0 0 0 0 0 0 1 0 0 0 0 0 0 0 0 0 0 0 0 0 0 0 0 0 0 1 0 0 0 0 
ST 11 1 1 1 1 1 1 1 1 1 1 1 1 1 1 1 1 1 1 1 1 1 1 1 1 1 1 1 1 1 1 1 1 1 1 1 1 1 1 1 1 1 1 1 1 1 1 1 1 1 1 
ST 12 0 0 0 0 0 0 0 0 0 0 0 0 0 0 0 0 0 1 0 0 0 0 0 0 0 0 0 0 0 0 0 0 0 0 0 0 0 0 0 0 0 0 0 0 0 0 0 1 0 0 
ST 13 0 0 0 0 0 0 0 0 0 0 0 0 0 0 0 0 0 0 0 0 0 1 0 0 0 0 0 0 0 0 0 0 0 0 0 0 0 1 0 0 0 0 0 0 0 0 0 0 0 0 
ST 14 0 1 0 0 0 0 0 1 0 0 0 0 0 0 0 0 0 0 0 0 0 0 0 0 0 0 0 0 0 0 0 1 0 0 0 0 0 0 0 0 0 0 0 0 0 0 0 0 0 0 
ST 15 0 0 0 0 1 0 0 0 0 0 0 0 0 0 0 0 0 1 1 0 0 0 0 0 0 0 0 0 0 0 0 0 0 0 1 0 0 0 0 0 0 0 0 0 0 0 0 0 0 0 
ST 16 0 1 0 0 0 0 0 0 0 0 0 0 0 0 0 0 0 0 0 0 0 0 0 0 0 0 0 1 0 0 0 1 0 0 0 0 0 0 0 0 0 0 0 0 0 0 0 0 1 0 
ST 17 0 0 1 0 0 0 0 0 0 0 0 0 0 0 0 0 0 0 0 0 0 0 0 0 0 0 0 0 0 0 0 0 0 0 0 0 0 0 0 0 1 0 0 0 0 0 0 0 0 0 
ST 18 0 0 0 0 0 0 0 1 0 0 1 0 0 0 0 1 0 0 0 0 0 0 0 0 0 1 1 1 1 0 0 0 0 1 0 0 1 0 1 0 0 0 1 1 0 0 0 1 0 0 
ST 19 0 0 0 0 0 0 0 0 0 0 0 0 0 0 0 0 0 0 0 0 1 0 0 0 0 0 0 0 0 0 0 0 0 0 0 0 0 0 0 0 0 0 0 0 0 0 0 0 0 0 
ST 20 0 0 0 0 0 0 1 0 0 0 0 0 0 0 0 0 0 0 0 0 0 0 0 0 0 0 0 0 1 0 0 0 0 0 0 0 0 0 0 0 0 0 0 0 0 0 0 1 0 0 
ST 21 1 0 0 0 0 0 0 0 0 0 0 0 0 0 0 0 0 0 0 0 0 0 0 0 0 0 0 0 0 0 0 0 0 0 1 0 0 0 0 0 0 0 0 0 0 0 0 1 1 0 
ST 22 0 0 0 0 0 0 0 0 0 0 0 0 0 0 0 0 1 0 1 0 0 0 0 0 0 0 0 0 0 0 0 0 0 0 0 0 0 0 1 0 0 0 0 1 1 0 0 0 1 0 
ST 23 0 1 0 0 0 0 0 0 0 0 0 0 0 0 0 0 0 0 0 0 0 0 0 0 0 0 0 0 0 0 0 0 0 0 0 0 0 0 0 0 0 0 1 0 0 0 0 0 0 0 
ST 24 0 0 0 0 0 0 0 0 0 0 0 0 0 0 0 0 0 0 0 0 0 0 0 0 0 0 0 0 0 0 0 0 0 0 0 0 0 0 0 0 0 0 0 0 0 0 0 0 0 0 
ST 25 0 0 0 0 0 0 0 0 0 0 0 0 0 0 0 0 0 0 0 0 0 1 0 0 0 0 0 0 0 0 0 0 0 0 0 0 1 0 0 0 0 0 0 0 0 0 0 0 0 1 
ST 26 0 0 1 0 1 0 0 0 0 0 0 1 0 0 0 0 0 0 0 0 0 0 0 0 0 0 0 0 0 0 0 0 0 0 0 0 0 0 0 0 0 0 0 0 0 0 1 0 0 0 
ST 27 0 0 0 0 0 0 0 0 0 0 0 0 0 0 0 0 0 0 0 0 0 0 0 0 0 0 0 0 1 0 0 0 0 0 1 1 0 0 0 0 0 0 0 0 0 0 0 0 0 0 
ST 28 0 0 0 0 0 0 0 0 0 0 1 0 0 0 0 0 0 0 0 1 0 0 0 0 0 0 0 0 0 0 0 0 0 0 0 0 0 0 0 0 0 0 0 0 0 0 0 0 0 0 
ST 29 0 0 0 0 0 0 0 0 0 0 0 0 0 0 0 0 0 0 0 0 1 0 0 0 1 0 0 0 0 0 0 0 1 0 0 0 0 0 0 0 0 0 1 0 0 0 0 0 0 0 
ST 30 0 0 0 0 0 0 0 0 0 0 0 1 0 0 0 0 0 0 0 0 0 0 0 1 1 0 0 0 0 0 0 0 0 0 0 0 0 0 0 0 0 1 0 0 0 0 0 0 0 0 
ST 31 0 0 0 0 0 0 0 0 0 0 0 0 0 0 0 0 0 0 0 0 0 0 0 0 0 0 0 0 0 0 0 0 0 0 0 0 0 0 1 0 1 1 0 0 0 0 0 0 0 0 
ST 32 0 0 0 0 0 0 0 0 0 0 0 0 0 1 0 0 0 0 0 0 0 0 0 0 0 0 0 0 0 0 0 0 0 0 0 0 0 1 0 0 0 0 0 0 0 0 0 0 0 0 
ST 33 0 0 0 0 0 0 0 1 0 0 0 0 0 1 0 0 0 0 0 0 0 0 1 0 0 0 0 0 0 0 0 0 0 0 0 0 0 0 0 0 0 0 0 0 0 0 0 0 0 0 
ST 34 1 0 1 0 1 0 0 0 0 0 1 0 0 0 1 1 1 0 0 0 0 0 0 1 0 0 0 0 0 0 0 0 0 0 1 0 1 0 1 1 0 1 0 1 1 1 0 0 0 1 
ST 35 0 0 1 0 0 0 0 0 0 0 0 0 0 0 0 0 0 0 0 0 0 0 0 0 0 0 0 0 0 0 0 0 0 0 0 0 0 0 0 1 0 0 0 0 0 0 0 0 0 0 
ST 36 0 0 0 0 0 0 0 0 0 0 0 0 0 0 0 0 0 0 0 0 0 0 0 0 0 1 0 1 0 0 0 0 0 0 0 0 0 0 0 0 0 0 0 1 0 0 0 0 0 0 
ST 37 0 1 0 0 1 0 0 1 0 0 0 0 0 0 0 1 1 1 0 1 0 0 0 0 1 0 0 0 0 0 1 1 0 1 0 1 0 1 0 0 0 0 0 0 0 0 0 0 1 0 
ST 38 0 1 0 0 1 1 0 0 0 0 0 0 0 0 0 0 0 0 0 0 0 0 0 0 0 1 0 0 0 0 0 0 0 0 0 0 0 0 0 0 0 1 0 0 0 0 0 0 0 0 
ST 39 1 0 0 1 1 1 0 0 0 0 0 1 0 1 1 0 0 1 0 1 0 1 1 0 1 0 0 0 0 1 0 1 0 0 0 0 0 0 0 0 1 0 1 0 0 0 0 0 0 0 
ST 40 0 0 0 0 0 0 0 0 0 0 0 0 0 0 0 0 0 0 0 0 0 0 0 0 0 0 0 0 0 0 0 0 0 0 0 1 0 1 0 0 0 0 0 0 0 0 1 0 1 0 
ST 41 0 1 0 1 1 0 0 1 0 0 1 0 1 0 0 1 0 0 0 0 1 1 0 1 0 0 0 0 0 1 0 0 0 0 0 0 0 0 0 0 0 1 0 1 1 1 1 0 0 0 
ST 42 0 0 0 0 0 0 0 0 0 0 1 0 0 0 0 0 0 0 0 0 0 0 0 0 0 1 0 0 0 0 0 0 0 0 0 0 1 0 0 0 0 0 0 0 0 0 0 0 0 0 
ST 43 0 0 0 0 0 0 0 0 0 0 0 0 1 0 0 0 0 0 0 0 0 0 0 0 0 0 0 0 0 0 0 0 0 0 0 0 1 0 0 0 0 0 0 0 0 0 0 0 0 0 
ST 44 0 0 1 0 0 1 0 0 0 0 1 0 0 0 0 0 0 0 0 0 0 0 0 0 0 0 0 0 0 0 0 0 0 0 0 0 0 0 0 1 0 0 0 0 0 0 0 0 0 0 
ST 45 0 0 0 0 1 0 0 0 0 0 0 0 0 0 0 0 0 0 0 0 0 0 0 0 0 0 0 0 0 1 1 0 0 0 0 0 0 0 0 0 0 0 0 0 0 0 0 0 1 0 
ST 46 0 0 0 0 0 0 0 0 0 0 0 0 0 0 0 0 1 0 0 0 0 0 0 0 1 0 0 0 1 0 0 0 0 0 0 0 0 0 0 1 0 0 0 0 0 0 0 0 0 0 
ST 47 0 0 0 0 0 0 0 0 0 0 0 0 0 0 0 0 0 0 0 0 0 0 0 0 0 0 0 0 0 0 0 0 0 0 0 0 0 0 0 0 0 0 0 0 0 0 0 0 0 0 
ST 48 0 0 0 0 0 0 0 0 0 0 0 0 0 0 0 0 0 0 0 0 0 0 0 0 0 0 0 0 0 0 0 0 0 0 0 0 0 0 0 0 0 0 0 0 0 0 1 0 0 0 
ST 49 0 0 0 0 0 0 1 0 0 1 0 0 0 0 0 0 0 0 0 0 0 1 0 0 0 0 0 0 0 0 0 0 0 0 0 0 0 0 0 1 0 0 0 0 0 0 0 1 0 0 
ST 50 0 0 0 0 0 0 0 0 0 0 0 0 0 0 0 1 0 0 0 0 0 0 0 0 1 0 0 0 0 0 0 0 0 0 0 0 0 0 0 0 0 0 0 0 0 0 0 0 0 0 
ST 51 0 0 0 0 0 0 0 0 0 0 0 0 0 0 0 0 0 0 0 0 0 0 0 0 0 0 0 0 0 0 0 0 0 0 0 0 0 0 0 0 0 0 0 0 0 0 0 0 0 0 
ST 52 0 0 0 0 0 0 0 0 1 1 0 0 0 0 0 0 0 1 1 0 0 0 0 0 0 1 1 0 0 0 0 0 0 0 0 0 0 0 0 0 0 0 0 0 0 0 0 0 0 0 
ST 53 0 0 0 0 0 0 0 0 0 0 0 0 0 0 0 0 0 0 0 0 0 0 0 0 0 0 0 0 0 0 0 0 1 0 0 0 1 0 0 0 0 0 0 0 0 0 0 0 0 0 
ST 54 1 0 0 0 1 0 0 0 0 0 0 0 0 0 1 0 0 0 0 0 0 0 0 0 0 0 1 0 0 0 0 0 0 0 0 1 0 0 0 0 0 0 0 0 0 0 0 0 1 0 
ST 55 0 0 0 0 0 0 0 0 0 0 0 0 0 0 0 0 0 0 0 0 0 0 0 0 0 0 0 0 0 0 0 0 1 0 0 0 0 0 0 0 0 0 1 0 0 0 0 0 0 1 
END


SECTION Coordinates
DD 1 346 174
DD 2 0 0
DD 3 322 184
DD 4 222 50
DD 5 160 276
DD 6 160 110
DD 7 222 104
DD 8 494 276
DD 9 346 104
DD 10 160 184
DD 11 443 174
DD 12 0 364
DD 13 304 104
DD 14 160 364
DD 15 492 276
DD 16 160 62
DD 17 492 364
DD 18 304 312
DD 19 494 250
DD 20 494 0
DD 21 346 250
DD 22 286 102
DD 23 286 50
DD 24 160 0
DD 25 420 102
DD 26 0 276
DD 27 346 364
DD 28 286 104
DD 29 160 104
DD 30 304 276
DD 31 304 50
DD 32 420 174
DD 33 304 364
DD 34 346 129
DD 35 0 184
DD 36 492 174
DD 37 222 18
DD 38 322 276
DD 39 346 150
DD 40 304 0
DD 41 255 104
DD 42 494 174
DD 43 322 364
DD 44 494 364
DD 45 494 102
DD 46 304 102
DD 47 222 62
DD 48 322 250
DD 49 492 250
DD 50 346 276
DD 51 222 0
DD 52 492 102
DD 53 346 184
DD 54 0 110
DD 55 346 102
END

EOF
